\ This file was automatically generated by Zimpl
\ var x1 >= 0;
\ var x2 >= 0;
\ var x3 >= 0;
\ maximize Z:      -5*x1 + 5*x2 + 13*x3;
\ subto c1:     -1*x1 + 1*x2 + 3*x3 <= 30;
\ subto c2:     12*x1 + 4*x2 + 10*x3 <= 90;
\Problem name: pp
Maximize
 Z:  -5 x1 +5 x2 +13 x3
Subject to
 c1_1:
  +3 x3 + x2 - x1 <= 30
 c2_1:
  +10 x3 +4 x2 +12 x1 <= 90
Bounds
 0 <= x1 <= +inf
 0 <= x2 <= +inf
 0 <= x3 <= +inf
End
